p cnf 65 253
1 0
2 0
13 6 0
-13 -6 0
15 7 0
-15 -7 0
10 16 17 0
-10 -16 0
-10 -17 0
-16 -17 0
13 26 18 0
-13 -26 -18 0
13 26 19 0
-13 -26 -19 0
13 18 18 0
-13 -18 -18 0
13 18 19 0
-13 -18 -19 0
26 18 19 0
-26 -18 -19 0
31 0
37 0
37 43 0
-37 -43 0
-42 0
-53 0
-48 0
-49 0
53 59 0
-53 -59 0
-2 -3 0
-2 -4 0
-2 -5 0
-3 -4 0
-3 -5 0
-4 -5 0
-8 -9 0
-8 -10 0
-8 -11 0
-8 -12 0
-8 -13 0
-8 -14 0
-9 -10 0
-9 -11 0
-9 -12 0
-9 -13 0
-9 -14 0
-10 -11 0
-10 -12 0
-10 -13 0
-10 -14 0
-11 -12 0
-11 -13 0
-11 -14 0
-12 -13 0
-12 -14 0
-13 -14 0
-17 -18 0
-21 -22 0
-21 -23 0
-22 -23 0
-24 -25 0
-24 -26 0
-24 -27 0
-25 -26 0
-25 -27 0
-26 -27 0
-29 -30 0
-29 -31 0
-30 -31 0
-32 -33 0
-32 -34 0
-33 -34 0
-35 -36 0
-38 -39 0
-40 -41 0
-40 -42 0
-40 -43 0
-41 -42 0
-41 -43 0
-42 -43 0
-45 -46 0
-47 -48 0
-52 -53 0
-52 -54 0
-53 -54 0
-56 -57 0
-58 -59 0
-60 -61 0
-60 -62 0
-60 -63 0
-60 -64 0
-60 -65 0
-61 -62 0
-61 -63 0
-61 -64 0
-61 -65 0
-62 -63 0
-62 -64 0
-62 -65 0
-63 -64 0
-63 -65 0
-64 -65 0
-15 -20 0
-40 -47 0
-1 -7 0
-28 -35 0
-28 -41 0
-28 -48 0
-28 -52 0
-28 -59 0
-35 -41 0
-35 -48 0
-35 -52 0
-35 -59 0
-41 -48 0
-41 -52 0
-41 -59 0
-48 -52 0
-48 -59 0
-52 -59 0
-36 -42 0
-2 -8 0
-22 -29 0
-43 -49 0
-43 -54 0
-49 -54 0
-3 -9 0
-3 -16 0
-3 -23 0
-3 -30 0
-3 -37 0
-9 -16 0
-9 -23 0
-9 -30 0
-9 -37 0
-16 -23 0
-16 -30 0
-16 -37 0
-23 -30 0
-23 -37 0
-30 -37 0
-4 -10 0
-5 -11 0
-5 -17 0
-5 -24 0
-11 -17 0
-11 -24 0
-17 -24 0
-55 -62 0
-12 -18 0
-12 -25 0
-12 -32 0
-18 -25 0
-18 -32 0
-25 -32 0
-26 -33 0
-26 -38 0
-26 -45 0
-33 -38 0
-33 -45 0
-38 -45 0
-56 -64 0
-6 -14 0
-6 -19 0
-6 -27 0
-6 -34 0
-6 -39 0
-6 -46 0
-14 -19 0
-14 -27 0
-14 -34 0
-14 -39 0
-14 -46 0
-19 -27 0
-19 -34 0
-19 -39 0
-19 -46 0
-27 -34 0
-27 -39 0
-27 -46 0
-34 -39 0
-34 -46 0
-39 -46 0
-57 -65 0
1 7 0
8 5 4 3 2 0
37 30 9 5 4 3 2 23 16 0
5 10 4 3 2 0
17 5 4 11 24 3 2 0
39 46 34 19 27 14 6 0
1 7 0
8 9 10 13 11 14 12 2 0
37 8 30 9 10 13 11 14 3 12 23 16 0
8 9 10 13 11 14 4 12 0
8 17 9 10 13 5 11 14 24 12 0
18 32 8 9 10 13 11 14 12 25 0
8 9 10 13 11 14 12 0
39 46 8 34 19 9 10 13 27 11 14 12 6 0
20 15 0
37 30 9 3 23 16 0
18 17 5 11 24 0
18 32 17 12 25 0
39 46 34 19 27 14 6 0
20 15 0
21 23 22 0
21 23 22 29 0
21 37 22 30 9 3 23 16 0
17 26 5 27 11 24 25 0
18 32 26 27 24 12 25 0
45 33 26 27 24 25 38 0
39 46 34 19 26 27 14 24 6 25 0
59 48 52 41 35 28 0
31 30 22 29 0
37 31 30 9 29 3 23 16 0
31 30 29 0
18 32 34 33 12 25 0
32 34 45 33 26 38 0
39 32 46 34 19 33 27 14 6 0
59 48 52 41 36 35 28 0
35 42 36 0
37 30 9 3 23 16 0
39 45 33 26 38 0
39 46 34 19 27 14 6 38 0
47 41 40 43 42 0
59 48 52 41 40 43 42 35 28 0
41 40 43 42 36 0
49 54 41 40 43 42 0
44 0
46 45 33 26 38 0
39 46 34 45 19 27 14 6 0
47 40 48 0
47 59 48 52 41 35 28 0
43 49 54 0
50 0
51 0
54 53 59 48 52 41 35 28 0
52 54 53 0
49 54 53 52 43 0
55 62 0
57 64 56 0
57 56 65 0
58 59 0
58 59 48 52 41 35 28 0
64 65 60 61 62 63 0
64 65 60 61 62 63 0
55 64 65 60 61 62 63 0
64 65 60 61 62 63 0
64 65 56 60 61 62 63 0
64 65 57 60 61 62 63 0
44 0
50 0
51 0
